db/data/2072987452714990061690417135229839856.z3.out
sat
-------------------
.858644215
